unknown
(model
; cardinality of BoundSet is 1
(declare-sort BoundSet 0)
; rep: @uc_BoundSet_0
(declare-sort UnboundSet 0)
(define-fun IsGoodRoleModel ((BOUND_VARIABLE_345 BoundSet)) Bool true)
(define-fun IsSays ((BOUND_VARIABLE_357 BoundSet) (BOUND_VARIABLE_358 BoundSet)) Bool false)
(define-fun IsLousyRoleModel ((BOUND_VARIABLE_345 BoundSet)) Bool false)
)
sat
(model
; cardinality of BoundSet is 1
(declare-sort BoundSet 0)
; rep: @uc_BoundSet_0
(declare-sort UnboundSet 0)
(define-fun IsGoodRoleModel ((BOUND_VARIABLE_383 BoundSet)) Bool true)
(define-fun IsSays ((BOUND_VARIABLE_391 BoundSet) (BOUND_VARIABLE_392 BoundSet)) Bool false)
(define-fun IsLousyRoleModel ((BOUND_VARIABLE_383 BoundSet)) Bool true)
)
